
Gurobi 8.1.1 (mac64) logging started Sat May 30 23:27:44 2020

Changed value of parameter LogFile to gurobi_logs/2020-05-30_23:27:41-rproblem3_mode=feasibility_sdp_reduce.log
   Prev: gurobi.log  Default: 
Parameter MIPFocus unchanged
   Value: 0  Min: 0  Max: 3  Default: 0
Parameter SolutionLimit unchanged
   Value: 2000000000  Min: 1  Max: 2000000000  Default: 2000000000
Parameter LogToConsole unchanged
   Value: 1  Min: 0  Max: 1  Default: 1
Changed value of parameter TimeLimit to 10000.0
   Prev: 1e+100  Min: 0.0  Max: 1e+100  Default: 1e+100
Optimize a model with 4000 rows, 4424 columns and 19620 nonzeros
Variable types: 48 continuous, 4376 integer (424 binary)
Coefficient statistics:
  Matrix range     [5e-01, 1e+03]
  Objective range  [2e-01, 5e+00]
  Bounds range     [1e+00, 1e+00]
  RHS range        [2e+00, 3e+01]
Presolve removed 3967 rows and 4375 columns
Presolve time: 0.13s
Presolved: 33 rows, 49 columns, 137 nonzeros
Variable types: 0 continuous, 49 integer (16 binary)
Found heuristic solution: objective 204.7500000
Found heuristic solution: objective 178.0000000

Root relaxation: objective 1.417395e+02, 39 iterations, 0.00 seconds

    Nodes    |    Current Node    |     Objective Bounds      |     Work
 Expl Unexpl |  Obj  Depth IntInf | Incumbent    BestBd   Gap | It/Node Time

     0     0  141.73947    0    7  178.00000  141.73947  20.4%     -    0s
H    0     0                     147.0000000  141.73947  3.58%     -    0s
     0     0  145.02381    0    6  147.00000  145.02381  1.34%     -    0s
H    0     0                     146.0000000  145.02381  0.67%     -    0s
     0     0     cutoff    0       146.00000  146.00000  0.00%     -    0s

Cutting planes:
  Gomory: 6
  Implied bound: 1
  Clique: 1
  MIR: 5
  Flow cover: 1
  Zero half: 3

Explored 1 nodes (57 simplex iterations) in 0.13 seconds
Thread count was 8 (of 8 available processors)

Solution count 4: 146 147 178 204.75 

Optimal solution found (tolerance 1.00e-04)
Best objective 1.460000000000e+02, best bound 1.460000000000e+02, gap 0.0000%

Gurobi 8.1.1 (mac64) logging started Sat May 30 23:27:46 2020

Changed value of parameter LogFile to gurobi_logs/2020-05-30_23:27:41-rproblem3_mode=feasibility_sdp_reduce.log
   Prev: gurobi.log  Default: 
Parameter MIPFocus unchanged
   Value: 0  Min: 0  Max: 3  Default: 0
Parameter SolutionLimit unchanged
   Value: 2000000000  Min: 1  Max: 2000000000  Default: 2000000000
Parameter LogToConsole unchanged
   Value: 1  Min: 0  Max: 1  Default: 1
Changed value of parameter TimeLimit to 10000.0
   Prev: 1e+100  Min: 0.0  Max: 1e+100  Default: 1e+100
Optimize a model with 134253 rows, 86103 columns and 2557560 nonzeros
Variable types: 45 continuous, 86058 integer (82530 binary)
Coefficient statistics:
  Matrix range     [2e-01, 1e+02]
  Objective range  [1e+00, 1e+00]
  Bounds range     [1e+00, 1e+00]
  RHS range        [1e+00, 2e+02]
Presolve removed 103217 rows and 50133 columns (presolve time = 6s) ...
Presolve removed 103217 rows and 50133 columns
Presolve time: 5.69s
Presolved: 31036 rows, 35970 columns, 385485 nonzeros
Variable types: 0 continuous, 35970 integer (35820 binary)

Deterministic concurrent LP optimizer: primal and dual simplex
Showing first log only...


Root simplex log...

Iteration    Objective       Primal Inf.    Dual Inf.      Time
       0    8.0000000e+01   7.472500e+02   3.309969e+09      6s
   13593    2.2824000e+04   0.000000e+00   0.000000e+00      8s
Concurrent spin time: 0.30s

Solved with dual simplex

Root relaxation: objective 2.282400e+04, 8115 iterations, 1.66 seconds

    Nodes    |    Current Node    |     Objective Bounds      |     Work
 Expl Unexpl |  Obj  Depth IntInf | Incumbent    BestBd   Gap | It/Node Time

     0     0 22824.0000    0  149          - 22824.0000      -     -    9s
H    0     0                    22861.000000 22824.0000  0.16%     -    9s
H    0     0                    22824.000000 22824.0000  0.00%     -    9s

Explored 1 nodes (19694 simplex iterations) in 10.01 seconds
Thread count was 8 (of 8 available processors)

Solution count 2: 22824 22861 

Optimal solution found (tolerance 1.00e-04)
Best objective 2.282400000000e+04, best bound 2.282400000000e+04, gap 0.0000%
